
  22    4
   1   1   1   1

   0   0   0   0   0  11 2 3 4 5 6 7 8 9 10 20 21 
   7   0   0   0   1   4   19   14   13   11
   7   1   0   1   0   3   14   12   11
   1   1   1   0   0   3   18   14   11
   7   0   1   1   0   2   17   15
   10   0   0   0   1   2   16   15
   9   1   0   1   0   2   13   11
   3   1   1   1   1   1   13
   10   0   1   0   0   1   12
   7   1   0   0   1   1   12
   1   0   1   1   1   1   22
   5   0   0   0   1   1   22
   6   1   1   0   0   1   22
   6   0   1   1   0   1   22
   9   1   0   1   1   1   22
   9   1   1   0   0   1   22
   3   1   1   0   1   1   22
   3   1   1   0   1   1   22
   10   0   1   0   0   1   22
   6   0   1   0   1   1   22
   4   0   0   0   1   1   22
   0   0   0   0   0   0 
